(set-info :smt-lib-version 2.6)
(set-info :category "crafted")
(set-logic QF_FFA)
(define-sort FF0 () (_ FiniteField 52435875175126190479447740508185965837690552500527637822603658699938581184513))
(declare-fun b () Bool)
(declare-fun a () Bool)
(declare-fun f () Bool)
(declare-fun d () Bool)
(declare-fun c () Bool)
(declare-fun e () Bool)
(declare-fun out () FF0)
(declare-fun _60 () FF0)
(declare-fun _45 () FF0)
(declare-fun _44 () FF0)
(declare-fun _58 () FF0)
(declare-fun _57 () FF0)
(declare-fun _49 () FF0)
(declare-fun _52 () FF0)
(declare-fun _53 () FF0)
(declare-fun _26 () FF0)
(declare-fun _51 () FF0)
(declare-fun _7 () FF0)
(declare-fun _15 () FF0)
(declare-fun _14 () FF0)
(declare-fun _1 () FF0)
(declare-fun _48 () FF0)
(declare-fun _40 () FF0)
(declare-fun _47 () FF0)
(declare-fun _2 () FF0)
(declare-fun _38 () FF0)
(declare-fun _37 () FF0)
(declare-fun _5 () FF0)
(declare-fun _33 () FF0)
(declare-fun _31 () FF0)
(declare-fun _30 () FF0)
(declare-fun _9 () FF0)
(declare-fun _25 () FF0)
(declare-fun _4 () FF0)
(declare-fun _24 () FF0)
(declare-fun _23 () FF0)
(declare-fun _3 () FF0)
(declare-fun _22 () FF0)
(declare-fun _21 () FF0)
(declare-fun _20 () FF0)
(declare-fun _19 () FF0)
(declare-fun _0 () FF0)
(declare-fun _18 () FF0)
(declare-fun _17 () FF0)
(declare-fun _6 () FF0)
(assert 
  (let ((let0 b))
  (let ((let1 a))
  (let ((let2 f))
  (let ((let3 (or let2 let1 let0)))
  (let ((let4 (not let3)))
  (let ((let5 d))
  (let ((let6 c))
  (let ((let7 (= let6 let5)))
  (let ((let8 e))
  (let ((let9 (ite let8 let2 let3)))
  (let ((let10 (or let1 let0 let6 let8 let1 let2 let5 let0 let5 let6 let8)))
  (let ((let11 (ite let7 let10 let9)))
  (let ((let12 (or let11 let7)))
  (let ((let13 (ite let9 let3 let12)))
  (let ((let14 (=> let13 let12)))
  (let ((let15 (ite let14 let2 let4)))
  (let ((let16 (or let10 let13 let6 let14)))
  (let ((let17 (not let16)))
  (let ((let18 (or let9 let0 let4)))
  (let ((let19 (=> let18 let10)))
  (let ((let20 (ite let18 let19 let17)))
  (let ((let21 (and let20 let15)))
  (let ((let22 out))
  (let ((let23 (as ff1 FF0)))
  (let ((let24 (= let23 let22)))
  (let ((let25 (= let24 let21)))
  (let ((let26 (as ff0 FF0)))
  (let ((let27 (= let26 let22)))
  (let ((let28 (or let24 let27)))
  (let ((let29 (and let28 let25)))
  (let ((let30 _60))
  (let ((let31 _45))
  (let ((let32 _44))
  (let ((let33 (ff.add let32 let31)))
  (let ((let34 _58))
  (let ((let35 _57))
  (let ((let36 (ff.add let35 let34)))
  (let ((let37 (ff.mul let36 let33)))
  (let ((let38 (= let37 let30)))
  (let ((let39 (as ff52435875175126190479447740508185965837690552500527637822603658699938581184512 FF0)))
  (let ((let40 _49))
  (let ((let41 (ff.mul let40 let39)))
  (let ((let42 (ff.add let41 let23)))
  (let ((let43 _52))
  (let ((let44 (ff.mul let43 let39)))
  (let ((let45 (ff.add let44 let23)))
  (let ((let46 (ff.mul let45 let42)))
  (let ((let47 (= let46 let34)))
  (let ((let48 _53))
  (let ((let49 (ff.mul let43 let48)))
  (let ((let50 (= let49 let35)))
  (let ((let51 (ff.mul let48 let39)))
  (let ((let52 _26))
  (let ((let53 (ff.add let52 let44 let51 let23)))
  (let ((let54 (ff.mul let45 let52)))
  (let ((let55 (= let54 let53)))
  (let ((let56 _51))
  (let ((let57 _7))
  (let ((let58 (ff.mul let57 let39)))
  (let ((let59 (ff.add let58 let56 let44 let23)))
  (let ((let60 (ff.add let58 let23)))
  (let ((let61 (ff.mul let56 let60)))
  (let ((let62 (= let61 let59)))
  (let ((let63 (ff.mul let56 let39)))
  (let ((let64 _15))
  (let ((let65 _14))
  (let ((let66 _1))
  (let ((let67 (ff.add let66 let65 let64 let63)))
  (let ((let68 (ff.add let65 let64)))
  (let ((let69 (ff.mul let68 let66)))
  (let ((let70 (= let69 let67)))
  (let ((let71 _48))
  (let ((let72 _40))
  (let ((let73 (ff.add let72 let71 let41)))
  (let ((let74 (ff.mul let71 let72)))
  (let ((let75 (= let74 let73)))
  (let ((let76 (ff.mul let71 let39)))
  (let ((let77 _47))
  (let ((let78 _2))
  (let ((let79 (ff.add let78 let77 let76)))
  (let ((let80 (ff.mul let77 let78)))
  (let ((let81 (= let80 let79)))
  (let ((let82 (ff.mul let77 let39)))
  (let ((let83 _38))
  (let ((let84 _37))
  (let ((let85 (ff.add let52 let84 let83 let82)))
  (let ((let86 (ff.add let84 let83)))
  (let ((let87 (ff.mul let52 let86)))
  (let ((let88 (= let87 let85)))
  (let ((let89 (ff.mul let72 let39)))
  (let ((let90 (ff.add let89 let23)))
  (let ((let91 (ff.mul let90 let60)))
  (let ((let92 (= let91 let31)))
  (let ((let93 _5))
  (let ((let94 (ff.mul let72 let93)))
  (let ((let95 (= let94 let32)))
  (let ((let96 (ff.mul let83 let39)))
  (let ((let97 (ff.mul let84 let39)))
  (let ((let98 _33))
  (let ((let99 (ff.add let98 let97 let96 let89 let23)))
  (let ((let100 (ff.add let97 let96 let23)))
  (let ((let101 (ff.mul let100 let98)))
  (let ((let102 (= let101 let99)))
  (let ((let103 (ff.mul let64 let39)))
  (let ((let104 (ff.mul let65 let39)))
  (let ((let105 (ff.add let104 let103 let23)))
  (let ((let106 (ff.mul let105 let98)))
  (let ((let107 (= let106 let83)))
  (let ((let108 (ff.mul let68 let57)))
  (let ((let109 (= let108 let84)))
  (let ((let110 (ff.mul let98 let39)))
  (let ((let111 _31))
  (let ((let112 _30))
  (let ((let113 _9))
  (let ((let114 (ff.mul let113 let39)))
  (let ((let115 (ff.add let114 let112 let111 let110 let23)))
  (let ((let116 (ff.add let114 let23)))
  (let ((let117 (ff.add let112 let111)))
  (let ((let118 (ff.mul let117 let116)))
  (let ((let119 (= let118 let115)))
  (let ((let120 (ff.mul let113 let68)))
  (let ((let121 (= let120 let111)))
  (let ((let122 (ff.mul let116 let52)))
  (let ((let123 (= let122 let112)))
  (let ((let124 (ff.mul let52 let39)))
  (let ((let125 _25))
  (let ((let126 _4))
  (let ((let127 (ff.add let126 let125 let124)))
  (let ((let128 (ff.mul let125 let126)))
  (let ((let129 (= let128 let127)))
  (let ((let130 (ff.mul let125 let39)))
  (let ((let131 _24))
  (let ((let132 (ff.add let78 let131 let130)))
  (let ((let133 (ff.mul let131 let78)))
  (let ((let134 (= let133 let132)))
  (let ((let135 (ff.mul let131 let39)))
  (let ((let136 _23))
  (let ((let137 _3))
  (let ((let138 (ff.add let137 let136 let135)))
  (let ((let139 (ff.mul let136 let137)))
  (let ((let140 (= let139 let138)))
  (let ((let141 (ff.mul let136 let39)))
  (let ((let142 _22))
  (let ((let143 (ff.add let66 let142 let141)))
  (let ((let144 (ff.mul let142 let66)))
  (let ((let145 (= let144 let143)))
  (let ((let146 (ff.mul let142 let39)))
  (let ((let147 _21))
  (let ((let148 (ff.add let137 let147 let146)))
  (let ((let149 (ff.mul let147 let137)))
  (let ((let150 (= let149 let148)))
  (let ((let151 (ff.mul let147 let39)))
  (let ((let152 _20))
  (let ((let153 (ff.add let93 let152 let151)))
  (let ((let154 (ff.mul let152 let93)))
  (let ((let155 (= let154 let153)))
  (let ((let156 (ff.mul let152 let39)))
  (let ((let157 _19))
  (let ((let158 _0))
  (let ((let159 (ff.add let158 let157 let156)))
  (let ((let160 (ff.mul let157 let158)))
  (let ((let161 (= let160 let159)))
  (let ((let162 (ff.mul let157 let39)))
  (let ((let163 _18))
  (let ((let164 (ff.add let126 let163 let162)))
  (let ((let165 (ff.mul let163 let126)))
  (let ((let166 (= let165 let164)))
  (let ((let167 (ff.mul let163 let39)))
  (let ((let168 _17))
  (let ((let169 (ff.add let78 let168 let167)))
  (let ((let170 (ff.mul let168 let78)))
  (let ((let171 (= let170 let169)))
  (let ((let172 (ff.mul let168 let39)))
  (let ((let173 (ff.add let158 let66 let172)))
  (let ((let174 (ff.mul let158 let66)))
  (let ((let175 (= let174 let173)))
  (let ((let176 (ff.mul let126 let39)))
  (let ((let177 (ff.add let176 let23)))
  (let ((let178 (ff.mul let177 let57)))
  (let ((let179 (= let178 let64)))
  (let ((let180 (ff.mul let126 let93)))
  (let ((let181 (= let180 let65)))
  (let ((let182 (ff.mul let137 let39)))
  (let ((let183 (ff.add let78 let182)))
  (let ((let184 (ff.mul let183 let183)))
  (let ((let185 (= let184 let113)))
  (let ((let186 _6))
  (let ((let187 (ff.add let66 let186 let58)))
  (let ((let188 (ff.mul let186 let66)))
  (let ((let189 (= let188 let187)))
  (let ((let190 (ff.mul let186 let39)))
  (let ((let191 (ff.add let158 let93 let190)))
  (let ((let192 (ff.mul let93 let158)))
  (let ((let193 (= let192 let191)))
  (let ((let194 (ff.mul let93 let93)))
  (let ((let195 (= let194 let93)))
  (let ((let196 (ff.mul let126 let126)))
  (let ((let197 (= let196 let126)))
  (let ((let198 (ff.mul let137 let137)))
  (let ((let199 (= let198 let137)))
  (let ((let200 (ff.mul let78 let78)))
  (let ((let201 (= let200 let78)))
  (let ((let202 (ff.mul let66 let66)))
  (let ((let203 (= let202 let66)))
  (let ((let204 (ff.mul let158 let158)))
  (let ((let205 (= let204 let158)))
  (let ((let206 (and let205 let203 let201 let199 let197 let195 let193 let189 let185 let181 let179 let175 let171 let166 let161 let155 let150 let145 let140 let134 let129 let123 let121 let119 let109 let107 let102 let95 let92 let88 let81 let75 let70 let62 let55 let50 let47 let38)))
  (let ((let207 (ite let0 let23 let26)))
  (let ((let208 (= let66 let207)))
  (let ((let209 (ite let8 let23 let26)))
  (let ((let210 (= let126 let209)))
  (let ((let211 (ite let2 let23 let26)))
  (let ((let212 (= let93 let211)))
  (let ((let213 (ite let5 let23 let26)))
  (let ((let214 (= let137 let213)))
  (let ((let215 (ite let6 let23 let26)))
  (let ((let216 (= let78 let215)))
  (let ((let217 (ite let1 let23 let26)))
  (let ((let218 (= let158 let217)))
  (let ((let219 (and let218 let216 let214 let212 let210 let208)))
  (let ((let220 (and let219 let206)))
  (let ((let221 (=> let220 let29)))
  (let ((let222 (not let221)))
  let222
)))))))))))))))))))))))))))))))))))))))))))))))))))))))))))))))))))))))))))))))))))))))))))))))))))))))))))))))))))))))))))))))))))))))))))))))))))))))))))))))))))))))))))))))))))))))))))))))))))))))))))))))))))))))))))))))
)
(check-sat)
